Minimize
  6 x_chocolate_crepe + 7 x_peanut_butter_crepes
Subject To
  c1: x_peanut_butter_crepes - x_chocolate_crepe >= 0
  c2: 0.75 x_chocolate_crepe - 0.25 x_peanut_butter_crepes >= 0
  c3: 3 x_chocolate_crepe <= 400
  c4: 4 x_peanut_butter_crepes <= 450
End